solution status: time limit reached
objective value:                                 -169
x_1368                                              1 	(obj:-1)
x_345                                               1 	(obj:-1)
x_348                                               1 	(obj:-1)
x_270                                               1 	(obj:-1)
x_100                                               1 	(obj:-1)
x_2048                                              1 	(obj:-1)
x_1621                                              1 	(obj:-1)
x_558                                               1 	(obj:-1)
x_1197                                              1 	(obj:-1)
x_1196                                              1 	(obj:-1)
x_1757                                              1 	(obj:-1)
x_1175                                              1 	(obj:-1)
x_1007                                              1 	(obj:-1)
x_687                                               1 	(obj:-1)
x_1224                                              1 	(obj:-1)
x_1221                                              1 	(obj:-1)
x_405                                               1 	(obj:-1)
x_374                                               1 	(obj:-1)
x_399                                               1 	(obj:-1)
x_245                                               1 	(obj:-1)
x_248                                               1 	(obj:-1)
x_1612                                              1 	(obj:-1)
x_1767                                              1 	(obj:-1)
x_1143                                              1 	(obj:-1)
x_694                                               1 	(obj:-1)
x_547                                               1 	(obj:-1)
x_1782                                              1 	(obj:-1)
x_417                                               1 	(obj:-1)
x_1380                                              1 	(obj:-1)
x_367                                               1 	(obj:-1)
x_384                                               1 	(obj:-1)
x_388                                               1 	(obj:-1)
x_167                                               1 	(obj:-1)
x_809                                               1 	(obj:-1)
x_1770                                              1 	(obj:-1)
x_223                                               1 	(obj:-1)
x_1805                                              1 	(obj:-1)
x_1945                                              1 	(obj:-1)
x_1545                                              1 	(obj:-1)
x_1493                                              1 	(obj:-1)
x_424                                               1 	(obj:-1)
x_524                                               1 	(obj:-1)
x_238                                               1 	(obj:-1)
x_1                                                 1 	(obj:-1)
x_147                                               1 	(obj:-1)
x_933                                               1 	(obj:-1)
x_820                                               1 	(obj:-1)
x_1482                                              1 	(obj:-1)
x_1488                                              1 	(obj:-1)
x_790                                               1 	(obj:-1)
x_1136                                              1 	(obj:-1)
x_514                                               1 	(obj:-1)
x_201                                               1 	(obj:-1)
x_204                                               1 	(obj:-1)
x_1573                                              1 	(obj:-1)
x_1820                                              1 	(obj:-1)
x_928                                               1 	(obj:-1)
x_1921                                              1 	(obj:-1)
x_831                                               1 	(obj:-1)
x_835                                               1 	(obj:-1)
x_1532                                              1 	(obj:-1)
x_784                                               1 	(obj:-1)
x_785                                               1 	(obj:-1)
x_64                                                1 	(obj:-1)
x_67                                                1 	(obj:-1)
x_638                                               1 	(obj:-1)
x_1728                                              1 	(obj:-1)
x_1723                                              1 	(obj:-1)
x_466                                               1 	(obj:-1)
x_915                                               1 	(obj:-1)
x_1935                                              1 	(obj:-1)
x_1730                                              1 	(obj:-1)
x_1030                                              1 	(obj:-1)
x_1022                                              1 	(obj:-1)
x_600                                               1 	(obj:-1)
x_603                                               1 	(obj:-1)
x_1214                                              1 	(obj:-1)
x_1118                                              1 	(obj:-1)
x_489                                               1 	(obj:-1)
x_906                                               1 	(obj:-1)
x_1846                                              1 	(obj:-1)
x_740                                               1 	(obj:-1)
x_1053                                              1 	(obj:-1)
x_1057                                              1 	(obj:-1)
x_1279                                              1 	(obj:-1)
x_1306                                              1 	(obj:-1)
x_499                                               1 	(obj:-1)
x_492                                               1 	(obj:-1)
x_26                                                1 	(obj:-1)
x_21                                                1 	(obj:-1)
x_1874                                              1 	(obj:-1)
x_1870                                              1 	(obj:-1)
x_1083                                              1 	(obj:-1)
x_971                                               1 	(obj:-1)
x_180                                               1 	(obj:-1)
x_185                                               1 	(obj:-1)
x_1919                                              1 	(obj:-1)
x_1914                                              1 	(obj:-1)
x_861                                               1 	(obj:-1)
x_2024                                              1 	(obj:-1)
x_881                                               1 	(obj:-1)
x_79                                                1 	(obj:-1)
x_1040                                              1 	(obj:-1)
x_1044                                              1 	(obj:-1)
x_1688                                              1 	(obj:-1)
x_669                                               1 	(obj:-1)
x_668                                               1 	(obj:-1)
x_1266                                              1 	(obj:-1)
x_1314                                              1 	(obj:-1)
x_1010                                              1 	(obj:-1)
x_317                                               1 	(obj:-1)
x_1863                                              1 	(obj:-1)
x_966                                               1 	(obj:-1)
x_1241                                              1 	(obj:-1)
x_874                                               1 	(obj:-1)
x_872                                               1 	(obj:-1)
x_1244                                              1 	(obj:-1)
x_1964                                              1 	(obj:-1)
x_761                                               1 	(obj:-1)
x_764                                               1 	(obj:-1)
x_1078                                              1 	(obj:-1)
x_1678                                              1 	(obj:-1)
x_1675                                              1 	(obj:-1)
x_1414                                              1 	(obj:-1)
x_1326                                              1 	(obj:-1)
x_300                                               1 	(obj:-1)
x_307                                               1 	(obj:-1)
x_1899                                              1 	(obj:-1)
x_1443                                              1 	(obj:-1)
x_711                                               1 	(obj:-1)
x_1405                                              1 	(obj:-1)
x_442                                               1 	(obj:-1)
x_646                                               1 	(obj:-1)
x_1464                                              1 	(obj:-1)
x_942                                               1 	(obj:-1)
x_2017                                              1 	(obj:-1)
x_2011                                              1 	(obj:-1)
x_86                                                1 	(obj:-1)
x_1652                                              1 	(obj:-1)
x_581                                               1 	(obj:-1)
x_1981                                              1 	(obj:-1)
x_322                                               1 	(obj:-1)
x_328                                               1 	(obj:-1)
x_1594                                              1 	(obj:-1)
x_122                                               1 	(obj:-1)
x_1641                                              1 	(obj:-1)
x_1428                                              1 	(obj:-1)
x_737                                               1 	(obj:-1)
x_1510                                              1 	(obj:-1)
x_357                                               1 	(obj:-1)
x_263                                               1 	(obj:-1)
x_265                                               1 	(obj:-1)
x_1567                                              1 	(obj:-1)
x_983                                               1 	(obj:-1)
x_113                                               1 	(obj:-1)
x_1796                                              1 	(obj:-1)
x_1632                                              1 	(obj:-1)
x_1638                                              1 	(obj:-1)
x_1988                                              1 	(obj:-1)
x_562                                               1 	(obj:-1)
x_567                                               1 	(obj:-1)
x_720                                               1 	(obj:-1)
x_1747                                              1 	(obj:-1)
x_1162                                              1 	(obj:-1)
x_45                                                1 	(obj:-1)
x_1291                                              1 	(obj:-1)
x_1713                                              1 	(obj:-1)
x_1363                                              1 	(obj:-1)
x_478                                               1 	(obj:-1)
